NAME : ftv70.2078.tour
COMMENT : Cost = 0_2078
COMMENT : Found by LKH [Keld Helsgaun] Fri Jan 13 17:16:53 2017
TYPE : TOUR
DIMENSION : 75
TOUR_SECTION
1
32
75
29
73
2
3
6
74
66
72
26
28
7
14
67
15
13
16
17
19
20
21
22
23
24
61
34
35
36
70
42
39
37
38
64
41
69
47
63
55
52
51
68
50
48
40
49
56
57
71
4
5
9
8
10
12
11
59
62
60
58
53
46
54
45
44
43
33
27
18
65
25
30
31
-1
EOF
